n = 75;

m = 5;

p = [30, 25, 10, 7, 3];

v = [0.1, 0.3, 0.5, 0.7, 0.9];

c = array2d(1..m, 1..m, [
    0.0, 3.0, 6.0, 9.0, 12.0,
    3.0, 0.0, 4.0, 7.0, 10.0,
    6.0, 4.0, 0.0, 5.0, 8.0,
    9.0, 7.0, 5.0, 0.0, 3.0,
    12.0,10.0,8.0, 3.0, 0.0
]);

ce = [2.0, 1.5, 1.0, 0.5, 0.2];

ct = 100.0;

maxM = 15;
